
Gurobi 6.5.2 (linux64) logging started Wed Mar 15 12:53:37 2017


Gurobi 6.5.2 (linux64) logging started Wed Mar 15 12:53:37 2017

Optimize a model with 201 rows, 2575 columns and 6207 nonzeros
Coefficient statistics:
  Matrix range    [1e+00, 2e+00]
  Objective range [1e+00, 1e+02]
  Bounds range    [1e+00, 1e+00]
  RHS range       [1e+00, 1e+00]
Presolve removed 53 rows and 1 columns
Presolve time: 0.01s
Presolved: 148 rows, 2574 columns, 5604 nonzeros
Variable types: 0 continuous, 2574 integer (2574 binary)

Root relaxation: objective 6.950000e+02, 108 iterations, 0.00 seconds

    Nodes    |    Current Node    |     Objective Bounds      |     Work
 Expl Unexpl |  Obj  Depth IntInf | Incumbent    BestBd   Gap | It/Node Time

     0     0  695.00000    0   35          -  695.00000      -     -    0s
     0     0  753.13889    0   34          -  753.13889      -     -    0s
     0     0  759.11579    0   37          -  759.11579      -     -    0s
     0     0  761.58578    0   64          -  761.58578      -     -    0s
     0     0  763.83578    0   65          -  763.83578      -     -    0s
     0     0  764.04286    0   44          -  764.04286      -     -    0s
     0     0  764.18132    0   51          -  764.18132      -     -    0s
     0     0  764.34615    0   57          -  764.34615      -     -    0s
     0     0  764.34615    0   54          -  764.34615      -     -    0s
     0     2  764.34615    0   54          -  764.34615      -     -    0s
H 1148  1027                    1528.0000000  769.85714  49.6%   3.0    0s
* 2811  1898             165    1156.0000000  775.98379  32.9%   3.9    4s
  3438  2087  840.00000   47    4 1156.00000  776.50000  32.8%   3.9    5s
* 4102  2324             137    1103.0000000  777.63768  29.5%   3.9    5s
* 4701  2761             138    1097.0000000  778.00000  29.1%   3.9    6s
* 8755  6053             179    1092.0000000  778.50000  28.7%   3.9    8s
* 9554  6738             208    1090.0000000  778.50000  28.6%   3.9    8s
 11049  7925  828.50000  123    4 1090.00000  778.50000  28.6%   3.9   10s

Cutting planes:
  Gomory: 52
  Cover: 94
  Flow cover: 5
  Zero half: 12
  Lazy constraints: 1295

Explored 11668 nodes (45219 simplex iterations) in 10.04 seconds
Thread count was 8 (of 8 available processors)

Time limit reached
Best objective 1.090000000000e+03, best bound 7.790000000000e+02, gap 28.5321%
